c This Formular is generated by mcnf
c
c    horn? no 
c    forced? no 
c    mixed sat? no 
c    clause length = 3 
c
p cnf 20  91 
 -2 -8 15 0
12 -15 -6 0
6 2 -3 0
-7 19 20 0
-16 -9 14 0
8 -17 -14 0
-8 -5 13 0
-19 2 12 0
-6 5 1 0
-12 15 20 0
19 5 20 0
9 8 -15 0
11 -19 16 0
-4 -7 -5 0
12 -7 -11 0
2 1 17 0
-12 8 -1 0
3 7 -12 0
-8 7 -19 0
3 -18 13 0
2 -14 -6 0
%
0

54 82 98 39 52 38 83 16 19 1 91 30 34 50 67 19 86 46 88 7
